p cnf 74 231
a 55 0
e 1 2 3 4 5 6 7 8 9 10 11 12 13 14 15 16 17 18 19 20 21 22 23 24 25 26 27 28 29 30 31 32 33 34 35 36 37 38 39 40 41 42 43 44 45 46 47 48 49 50 51 52 53 54 56 57 58 59 60 61 62 63 64 65 66 67 68 69 70 71 72 73 74 0
3 -1 0
3 -2 0
1 2 -3 0
-6 4 0
-6 -5 0
-4 5 6 0
-7 3 0
-7 -6 0
-3 6 7 0
9 2 0
9 8 0
-2 -8 -9 0
9 10 0
-9 10 0
2 1 -11 0
-2 -1 -11 0
2 -1 11 0
-2 1 11 0
10 11 -12 0
-10 -11 -12 0
10 -11 12 0
-10 11 12 0
12 -13 -14 0
-12 13 -14 0
12 13 14 0
-12 -13 14 0
14 -15 -16 0
-14 15 -16 0
14 15 16 0
-14 -15 16 0
-10 16 -17 0
10 -16 -17 0
-10 -16 17 0
10 16 17 0
7 17 -18 0
-7 -17 -18 0
7 -17 18 0
-7 17 18 0
-19 -7 0
-19 -10 0
7 10 19 0
-20 5 0
-20 -5 0
-21 -20 0
-21 1 0
20 -1 21 0
-22 -2 0
-22 -8 0
2 8 22 0
21 22 -23 0
-21 -22 -23 0
21 -22 23 0
-21 22 23 0
-24 -23 0
-24 16 0
23 -16 24 0
-25 -19 0
-25 24 0
19 -24 25 0
-26 -18 0
-26 25 0
18 -25 26 0
-9 -5 -27 0
9 5 -27 0
-9 5 27 0
9 -5 27 0
-26 -27 -28 0
26 27 -28 0
-26 27 28 0
26 -27 28 0
6 -12 -29 0
-6 12 -29 0
6 12 29 0
-6 -12 29 0
29 30 -31 0
-29 -30 -31 0
29 -30 31 0
-29 30 31 0
32 5 0
32 11 0
-5 -11 -32 0
33 22 0
33 32 0
-22 -32 -33 0
34 -13 0
34 33 0
13 -33 -34 0
35 22 -36 0
-35 -22 -36 0
35 -22 36 0
-35 22 36 0
37 -34 0
37 -36 0
34 36 -37 0
-38 -31 0
-38 -37 0
31 37 38 0
-39 -6 0
-39 23 0
6 -23 39 0
-40 10 0
-40 -22 0
-10 22 40 0
-40 -2 -41 0
40 2 -41 0
-40 2 41 0
40 -2 41 0
-42 -39 0
-42 41 0
39 -41 42 0
-1 -43 0
1 -43 0
44 -43 0
44 40 0
43 -40 -44 0
45 44 0
45 -5 0
-44 5 -45 0
46 3 0
46 10 0
-3 -10 -46 0
47 -43 0
47 17 0
43 -17 -47 0
48 -46 0
48 47 0
46 -47 -48 0
-45 48 -49 0
45 -48 -49 0
-45 -48 49 0
45 48 49 0
-42 -49 -50 0
42 49 -50 0
-42 49 50 0
42 -49 50 0
-51 -43 0
-51 15 0
43 -15 51 0
-12 52 0
12 52 0
53 52 0
53 -8 0
-52 8 -53 0
-54 51 0
-54 53 0
-51 -53 54 0
-55 35 0
-55 15 0
-35 -15 55 0
-56 54 0
-56 -55 0
-54 55 56 0
52 35 -57 0
-52 -35 -57 0
52 -35 57 0
-52 35 57 0
58 5 0
58 -57 0
-5 57 -58 0
13 12 -59 0
-13 -12 -59 0
13 -12 59 0
-13 12 59 0
-58 59 -60 0
58 -59 -60 0
-58 -59 60 0
58 59 60 0
-61 17 0
-61 -40 0
-17 40 61 0
20 62 -63 0
-20 -62 -63 0
20 -62 63 0
-20 62 63 0
64 -61 0
64 -63 0
61 63 -64 0
-65 -60 0
-65 64 0
60 -64 65 0
-56 -65 -66 0
56 65 -66 0
-56 65 66 0
56 -65 66 0
-67 -13 0
-67 43 0
13 -43 67 0
68 -14 0
68 5 0
14 -5 -68 0
-69 -9 0
-69 -68 0
9 68 69 0
70 -67 0
70 69 0
67 -69 -70 0
-71 -66 0
-71 -70 0
66 70 71 0
72 50 0
72 71 0
-50 -71 -72 0
73 38 0
73 72 0
-38 -72 -73 0
-28 -73 -74 0
28 73 -74 0
-28 73 74 0
28 -73 74 0
-71 44 30 29 -39 -33 -6 -34 0
20 -10 72 46 -14 0
2 -14 -4 -52 22 -12 0
2 61 31 1 -55 -13 0
31 70 38 36 69 68 0
-30 -70 56 -3 53 74 0
10 -69 32 -25 -51 -44 41 0
-1 19 62 14 65 42 7 0
-61 16 15 32 -54 0
-2 36 59 -4 30 -58 0
38 25 -72 -74 0
62 50 28 66 -57 25 0
43 -29 -4 -71 63 0
-46 -59 57 -58 -17 4 39 0
43 39 -6 3 -25 0
-57 -61 45 -51 0
69 4 -10 -38 23 -20 39 -32 0
68 3 -27 0
-5 -8 -3 0
55 60 -70 52 1 -73 0
-34 -36 68 47 33 71 0
74 0
